<?xml version = "1.0" encoding="UTF-8" standalone="yes"?>
<CPLEXSolution version="1.2">
 <header
   problemName="fir2_2.0.lp"
   solutionName="incumbent"
   solutionIndex="-1"
   objectiveValue="3"
   solutionTypeValue="3"
   solutionTypeString="primal"
   solutionStatusValue="101"
   solutionStatusString="integer optimal solution"
   solutionMethodString="mip"
   primalFeasible="1"
   dualFeasible="1"
   MIPNodes="0"
   MIPIterations="181"
   writeLevel="1"/>
 <quality
   epInt="1.0000000000000001e-05"
   epRHS="9.9999999999999995e-07"
   maxIntInfeas="0"
   maxPrimalInfeas="0"
   maxX="2"
   maxSlack="15"/>
 <linearConstraints>
  <constraint name="c1" index="0" slack="0"/>
  <constraint name="c2" index="1" slack="0"/>
  <constraint name="c3" index="2" slack="0"/>
  <constraint name="c4" index="3" slack="0"/>
  <constraint name="c5" index="4" slack="0"/>
  <constraint name="c6" index="5" slack="0"/>
  <constraint name="c7" index="6" slack="0"/>
  <constraint name="c8" index="7" slack="0"/>
  <constraint name="c9" index="8" slack="0"/>
  <constraint name="c10" index="9" slack="0"/>
  <constraint name="c11" index="10" slack="0"/>
  <constraint name="c12" index="11" slack="0"/>
  <constraint name="c13" index="12" slack="0"/>
  <constraint name="c14" index="13" slack="0"/>
  <constraint name="c15" index="14" slack="0"/>
  <constraint name="c16" index="15" slack="0"/>
  <constraint name="c17" index="16" slack="0"/>
  <constraint name="c18" index="17" slack="0"/>
  <constraint name="c19" index="18" slack="0"/>
  <constraint name="c20" index="19" slack="0"/>
  <constraint name="c21" index="20" slack="0"/>
  <constraint name="c22" index="21" slack="0"/>
  <constraint name="c23" index="22" slack="0"/>
  <constraint name="c24" index="23" slack="0"/>
  <constraint name="c25" index="24" slack="0"/>
  <constraint name="c26" index="25" slack="0"/>
  <constraint name="c27" index="26" slack="0"/>
  <constraint name="c28" index="27" slack="0"/>
  <constraint name="c29" index="28" slack="0"/>
  <constraint name="c30" index="29" slack="0"/>
  <constraint name="c31" index="30" slack="0"/>
  <constraint name="c32" index="31" slack="0"/>
  <constraint name="c33" index="32" slack="0"/>
  <constraint name="c34" index="33" slack="0"/>
  <constraint name="c35" index="34" slack="0"/>
  <constraint name="c36" index="35" slack="0"/>
  <constraint name="c37" index="36" slack="0"/>
  <constraint name="c38" index="37" slack="0"/>
  <constraint name="c39" index="38" slack="0"/>
  <constraint name="c40" index="39" slack="0"/>
  <constraint name="c41" index="40" slack="1"/>
  <constraint name="c42" index="41" slack="1"/>
  <constraint name="c43" index="42" slack="1"/>
  <constraint name="c44" index="43" slack="0"/>
  <constraint name="c45" index="44" slack="1"/>
  <constraint name="c46" index="45" slack="0"/>
  <constraint name="c47" index="46" slack="1"/>
  <constraint name="c48" index="47" slack="0"/>
  <constraint name="c49" index="48" slack="0"/>
  <constraint name="c50" index="49" slack="0"/>
  <constraint name="c51" index="50" slack="1"/>
  <constraint name="c52" index="51" slack="0"/>
  <constraint name="c53" index="52" slack="1"/>
  <constraint name="c54" index="53" slack="0"/>
  <constraint name="c55" index="54" slack="2"/>
  <constraint name="c56" index="55" slack="0"/>
  <constraint name="c57" index="56" slack="1"/>
  <constraint name="c58" index="57" slack="0"/>
  <constraint name="c59" index="58" slack="2"/>
  <constraint name="c60" index="59" slack="0"/>
  <constraint name="c61" index="60" slack="0"/>
  <constraint name="c62" index="61" slack="0"/>
  <constraint name="c63" index="62" slack="0"/>
  <constraint name="c64" index="63" slack="0"/>
  <constraint name="c65" index="64" slack="1"/>
  <constraint name="c66" index="65" slack="0"/>
  <constraint name="c67" index="66" slack="0"/>
  <constraint name="c68" index="67" slack="0"/>
  <constraint name="c69" index="68" slack="1"/>
  <constraint name="c70" index="69" slack="1"/>
  <constraint name="c71" index="70" slack="1"/>
  <constraint name="c72" index="71" slack="1"/>
  <constraint name="c73" index="72" slack="0"/>
  <constraint name="c74" index="73" slack="1"/>
  <constraint name="c75" index="74" slack="0"/>
  <constraint name="c76" index="75" slack="0"/>
  <constraint name="c77" index="76" slack="0"/>
  <constraint name="c78" index="77" slack="0"/>
  <constraint name="c79" index="78" slack="0"/>
  <constraint name="c80" index="79" slack="1"/>
  <constraint name="c81" index="80" slack="0"/>
  <constraint name="c82" index="81" slack="0"/>
  <constraint name="c83" index="82" slack="4"/>
  <constraint name="c84" index="83" slack="4"/>
  <constraint name="c85" index="84" slack="4"/>
  <constraint name="c86" index="85" slack="0"/>
  <constraint name="c87" index="86" slack="0"/>
  <constraint name="c88" index="87" slack="1"/>
  <constraint name="c89" index="88" slack="11"/>
  <constraint name="c90" index="89" slack="12"/>
  <constraint name="c91" index="90" slack="5"/>
  <constraint name="c92" index="91" slack="5"/>
  <constraint name="c93" index="92" slack="1"/>
  <constraint name="c94" index="93" slack="1"/>
  <constraint name="c95" index="94" slack="0"/>
  <constraint name="c96" index="95" slack="5"/>
  <constraint name="c97" index="96" slack="5"/>
  <constraint name="c98" index="97" slack="11"/>
  <constraint name="c99" index="98" slack="0"/>
  <constraint name="c100" index="99" slack="0"/>
  <constraint name="c101" index="100" slack="4"/>
  <constraint name="c102" index="101" slack="0"/>
  <constraint name="c103" index="102" slack="0"/>
  <constraint name="c104" index="103" slack="0"/>
  <constraint name="c105" index="104" slack="7"/>
  <constraint name="c106" index="105" slack="2"/>
  <constraint name="c107" index="106" slack="0"/>
  <constraint name="c108" index="107" slack="2"/>
  <constraint name="c109" index="108" slack="5"/>
  <constraint name="c110" index="109" slack="0"/>
  <constraint name="c111" index="110" slack="0"/>
  <constraint name="c112" index="111" slack="0"/>
  <constraint name="c113" index="112" slack="9"/>
  <constraint name="c114" index="113" slack="0"/>
  <constraint name="c115" index="114" slack="15"/>
  <constraint name="c116" index="115" slack="0"/>
  <constraint name="c117" index="116" slack="1"/>
  <constraint name="c118" index="117" slack="0"/>
  <constraint name="c119" index="118" slack="0"/>
  <constraint name="c120" index="119" slack="0"/>
  <constraint name="c121" index="120" slack="0"/>
 </linearConstraints>
 <variables>
  <variable name="M1" index="0" value="1"/>
  <variable name="M2" index="1" value="2"/>
  <variable name="x0,12" index="2" value="-0"/>
  <variable name="x0,13" index="3" value="-0"/>
  <variable name="x0,14" index="4" value="-0"/>
  <variable name="x0,15" index="5" value="-0"/>
  <variable name="x0,16" index="6" value="1"/>
  <variable name="x0,17" index="7" value="-0"/>
  <variable name="x0,18" index="8" value="-0"/>
  <variable name="x0,19" index="9" value="-0"/>
  <variable name="x0,20" index="10" value="-0"/>
  <variable name="x0,21" index="11" value="-0"/>
  <variable name="x0,22" index="12" value="-0"/>
  <variable name="x0,23" index="13" value="-0"/>
  <variable name="x0,24" index="14" value="-0"/>
  <variable name="x1,12" index="15" value="-0"/>
  <variable name="x1,13" index="16" value="-0"/>
  <variable name="x1,14" index="17" value="-0"/>
  <variable name="x1,15" index="18" value="-0"/>
  <variable name="x1,16" index="19" value="1"/>
  <variable name="x1,17" index="20" value="-0"/>
  <variable name="x1,18" index="21" value="-0"/>
  <variable name="x1,19" index="22" value="-0"/>
  <variable name="x1,20" index="23" value="-0"/>
  <variable name="x1,21" index="24" value="-0"/>
  <variable name="x1,22" index="25" value="-0"/>
  <variable name="x1,23" index="26" value="-0"/>
  <variable name="x1,24" index="27" value="-0"/>
  <variable name="x2,11" index="28" value="1"/>
  <variable name="x2,12" index="29" value="-0"/>
  <variable name="x2,13" index="30" value="-0"/>
  <variable name="x2,14" index="31" value="-0"/>
  <variable name="x2,15" index="32" value="-0"/>
  <variable name="x2,16" index="33" value="-0"/>
  <variable name="x2,17" index="34" value="-0"/>
  <variable name="x2,18" index="35" value="-0"/>
  <variable name="x2,19" index="36" value="-0"/>
  <variable name="x2,20" index="37" value="-0"/>
  <variable name="x2,21" index="38" value="-0"/>
  <variable name="x2,22" index="39" value="-0"/>
  <variable name="x2,23" index="40" value="0"/>
  <variable name="x3,12" index="41" value="-0"/>
  <variable name="x3,13" index="42" value="-0"/>
  <variable name="x3,14" index="43" value="-0"/>
  <variable name="x3,15" index="44" value="-0"/>
  <variable name="x3,16" index="45" value="-0"/>
  <variable name="x3,17" index="46" value="-0"/>
  <variable name="x3,18" index="47" value="1"/>
  <variable name="x3,19" index="48" value="-0"/>
  <variable name="x3,20" index="49" value="-0"/>
  <variable name="x3,21" index="50" value="-0"/>
  <variable name="x3,22" index="51" value="-0"/>
  <variable name="x3,23" index="52" value="-0"/>
  <variable name="x3,24" index="53" value="-0"/>
  <variable name="x4,12" index="54" value="-0"/>
  <variable name="x4,13" index="55" value="-0"/>
  <variable name="x4,14" index="56" value="1"/>
  <variable name="x4,15" index="57" value="-0"/>
  <variable name="x4,16" index="58" value="-0"/>
  <variable name="x4,17" index="59" value="-0"/>
  <variable name="x4,18" index="60" value="-0"/>
  <variable name="x4,19" index="61" value="-0"/>
  <variable name="x4,20" index="62" value="-0"/>
  <variable name="x4,21" index="63" value="-0"/>
  <variable name="x4,22" index="64" value="-0"/>
  <variable name="x4,23" index="65" value="-0"/>
  <variable name="x4,24" index="66" value="0"/>
  <variable name="x5,11" index="67" value="-0"/>
  <variable name="x5,12" index="68" value="-0"/>
  <variable name="x5,13" index="69" value="1"/>
  <variable name="x5,14" index="70" value="-0"/>
  <variable name="x5,15" index="71" value="-0"/>
  <variable name="x5,16" index="72" value="-0"/>
  <variable name="x5,17" index="73" value="-0"/>
  <variable name="x5,18" index="74" value="-0"/>
  <variable name="x5,19" index="75" value="-0"/>
  <variable name="x5,20" index="76" value="-0"/>
  <variable name="x5,21" index="77" value="-0"/>
  <variable name="x5,22" index="78" value="-0"/>
  <variable name="x5,23" index="79" value="-0"/>
  <variable name="x6,11" index="80" value="-0"/>
  <variable name="x6,12" index="81" value="-0"/>
  <variable name="x6,13" index="82" value="-0"/>
  <variable name="x6,14" index="83" value="-0"/>
  <variable name="x6,15" index="84" value="-0"/>
  <variable name="x6,16" index="85" value="-0"/>
  <variable name="x6,17" index="86" value="-0"/>
  <variable name="x6,18" index="87" value="-0"/>
  <variable name="x6,19" index="88" value="-0"/>
  <variable name="x6,20" index="89" value="1"/>
  <variable name="x6,21" index="90" value="-0"/>
  <variable name="x6,22" index="91" value="-0"/>
  <variable name="x6,23" index="92" value="-0"/>
  <variable name="x6,24" index="93" value="-0"/>
  <variable name="x7,11" index="94" value="-0"/>
  <variable name="x7,12" index="95" value="-0"/>
  <variable name="x7,13" index="96" value="-0"/>
  <variable name="x7,14" index="97" value="-0"/>
  <variable name="x7,15" index="98" value="-0"/>
  <variable name="x7,16" index="99" value="-0"/>
  <variable name="x7,17" index="100" value="0"/>
  <variable name="x7,18" index="101" value="-0"/>
  <variable name="x7,19" index="102" value="-0"/>
  <variable name="x7,20" index="103" value="-0"/>
  <variable name="x7,21" index="104" value="1"/>
  <variable name="x7,22" index="105" value="-0"/>
  <variable name="x7,23" index="106" value="-0"/>
  <variable name="x7,24" index="107" value="-0"/>
  <variable name="x8,10" index="108" value="-0"/>
  <variable name="x8,11" index="109" value="0"/>
  <variable name="x8,12" index="110" value="-0"/>
  <variable name="x8,13" index="111" value="-0"/>
  <variable name="x8,14" index="112" value="-0"/>
  <variable name="x8,15" index="113" value="-0"/>
  <variable name="x8,16" index="114" value="-0"/>
  <variable name="x8,17" index="115" value="-0"/>
  <variable name="x8,18" index="116" value="-0"/>
  <variable name="x8,19" index="117" value="1"/>
  <variable name="x8,20" index="118" value="-0"/>
  <variable name="x8,21" index="119" value="-0"/>
  <variable name="x8,22" index="120" value="-0"/>
  <variable name="x8,23" index="121" value="-0"/>
  <variable name="x9,10" index="122" value="-0"/>
  <variable name="x9,11" index="123" value="-0"/>
  <variable name="x9,12" index="124" value="-0"/>
  <variable name="x9,13" index="125" value="-0"/>
  <variable name="x9,14" index="126" value="-0"/>
  <variable name="x9,15" index="127" value="-0"/>
  <variable name="x9,16" index="128" value="-0"/>
  <variable name="x9,17" index="129" value="-0"/>
  <variable name="x9,18" index="130" value="0"/>
  <variable name="x9,19" index="131" value="-0"/>
  <variable name="x9,20" index="132" value="-0"/>
  <variable name="x9,21" index="133" value="1"/>
  <variable name="x9,22" index="134" value="-0"/>
  <variable name="x9,23" index="135" value="0"/>
  <variable name="x9,24" index="136" value="-0"/>
  <variable name="x10,10" index="137" value="-0"/>
  <variable name="x10,11" index="138" value="-0"/>
  <variable name="x10,12" index="139" value="-0"/>
  <variable name="x10,13" index="140" value="-0"/>
  <variable name="x10,14" index="141" value="-0"/>
  <variable name="x10,15" index="142" value="-0"/>
  <variable name="x10,16" index="143" value="-0"/>
  <variable name="x10,17" index="144" value="-0"/>
  <variable name="x10,18" index="145" value="0"/>
  <variable name="x10,19" index="146" value="-0"/>
  <variable name="x10,20" index="147" value="-0"/>
  <variable name="x10,21" index="148" value="-0"/>
  <variable name="x10,22" index="149" value="1"/>
  <variable name="x10,23" index="150" value="-0"/>
  <variable name="x10,24" index="151" value="-0"/>
  <variable name="x11,9" index="152" value="1"/>
  <variable name="x11,10" index="153" value="-0"/>
  <variable name="x11,11" index="154" value="-0"/>
  <variable name="x11,12" index="155" value="-0"/>
  <variable name="x11,13" index="156" value="-0"/>
  <variable name="x11,14" index="157" value="-0"/>
  <variable name="x11,15" index="158" value="-0"/>
  <variable name="x11,16" index="159" value="-0"/>
  <variable name="x11,17" index="160" value="-0"/>
  <variable name="x11,18" index="161" value="-0"/>
  <variable name="x11,19" index="162" value="-0"/>
  <variable name="x11,20" index="163" value="0"/>
  <variable name="x11,21" index="164" value="-0"/>
  <variable name="x11,22" index="165" value="-0"/>
  <variable name="x11,23" index="166" value="-0"/>
  <variable name="x12,9" index="167" value="-0"/>
  <variable name="x12,10" index="168" value="-0"/>
  <variable name="x12,11" index="169" value="-0"/>
  <variable name="x12,12" index="170" value="0"/>
  <variable name="x12,13" index="171" value="-0"/>
  <variable name="x12,14" index="172" value="-0"/>
  <variable name="x12,15" index="173" value="-0"/>
  <variable name="x12,16" index="174" value="-0"/>
  <variable name="x12,17" index="175" value="-0"/>
  <variable name="x12,18" index="176" value="-0"/>
  <variable name="x12,19" index="177" value="-0"/>
  <variable name="x12,20" index="178" value="0"/>
  <variable name="x12,21" index="179" value="-0"/>
  <variable name="x12,22" index="180" value="-0"/>
  <variable name="x12,23" index="181" value="1"/>
  <variable name="x12,24" index="182" value="-0"/>
  <variable name="x13,9" index="183" value="-0"/>
  <variable name="x13,10" index="184" value="-0"/>
  <variable name="x13,11" index="185" value="-0"/>
  <variable name="x13,12" index="186" value="-0"/>
  <variable name="x13,13" index="187" value="-0"/>
  <variable name="x13,14" index="188" value="-0"/>
  <variable name="x13,15" index="189" value="-0"/>
  <variable name="x13,16" index="190" value="-0"/>
  <variable name="x13,17" index="191" value="-0"/>
  <variable name="x13,18" index="192" value="-0"/>
  <variable name="x13,19" index="193" value="-0"/>
  <variable name="x13,20" index="194" value="0"/>
  <variable name="x13,21" index="195" value="-0"/>
  <variable name="x13,22" index="196" value="-0"/>
  <variable name="x13,23" index="197" value="1"/>
  <variable name="x13,24" index="198" value="-0"/>
  <variable name="x14,8" index="199" value="-0"/>
  <variable name="x14,9" index="200" value="-0"/>
  <variable name="x14,10" index="201" value="-0"/>
  <variable name="x14,11" index="202" value="-0"/>
  <variable name="x14,12" index="203" value="-0"/>
  <variable name="x14,13" index="204" value="-0"/>
  <variable name="x14,14" index="205" value="-0"/>
  <variable name="x14,15" index="206" value="-0"/>
  <variable name="x14,16" index="207" value="-0"/>
  <variable name="x14,17" index="208" value="1"/>
  <variable name="x14,18" index="209" value="-0"/>
  <variable name="x14,19" index="210" value="-0"/>
  <variable name="x14,20" index="211" value="-0"/>
  <variable name="x14,21" index="212" value="-0"/>
  <variable name="x14,22" index="213" value="-0"/>
  <variable name="x14,23" index="214" value="0"/>
  <variable name="x15,8" index="215" value="-0"/>
  <variable name="x15,9" index="216" value="-0"/>
  <variable name="x15,10" index="217" value="-0"/>
  <variable name="x15,11" index="218" value="-0"/>
  <variable name="x15,12" index="219" value="-0"/>
  <variable name="x15,13" index="220" value="-0"/>
  <variable name="x15,14" index="221" value="-0"/>
  <variable name="x15,15" index="222" value="-0"/>
  <variable name="x15,16" index="223" value="-0"/>
  <variable name="x15,17" index="224" value="-0"/>
  <variable name="x15,18" index="225" value="0"/>
  <variable name="x15,19" index="226" value="-0"/>
  <variable name="x15,20" index="227" value="-0"/>
  <variable name="x15,21" index="228" value="-0"/>
  <variable name="x15,22" index="229" value="-0"/>
  <variable name="x15,23" index="230" value="-0"/>
  <variable name="x15,24" index="231" value="1"/>
  <variable name="x16,8" index="232" value="-0"/>
  <variable name="x16,9" index="233" value="-0"/>
  <variable name="x16,10" index="234" value="-0"/>
  <variable name="x16,11" index="235" value="-0"/>
  <variable name="x16,12" index="236" value="-0"/>
  <variable name="x16,13" index="237" value="-0"/>
  <variable name="x16,14" index="238" value="-0"/>
  <variable name="x16,15" index="239" value="-0"/>
  <variable name="x16,16" index="240" value="-0"/>
  <variable name="x16,17" index="241" value="-0"/>
  <variable name="x16,18" index="242" value="-0"/>
  <variable name="x16,19" index="243" value="-0"/>
  <variable name="x16,20" index="244" value="0"/>
  <variable name="x16,21" index="245" value="-0"/>
  <variable name="x16,22" index="246" value="-0"/>
  <variable name="x16,23" index="247" value="-0"/>
  <variable name="x16,24" index="248" value="1"/>
  <variable name="x17,7" index="249" value="0"/>
  <variable name="x17,8" index="250" value="-0"/>
  <variable name="x17,9" index="251" value="-0"/>
  <variable name="x17,10" index="252" value="-0"/>
  <variable name="x17,11" index="253" value="-0"/>
  <variable name="x17,12" index="254" value="-0"/>
  <variable name="x17,13" index="255" value="-0"/>
  <variable name="x17,14" index="256" value="-0"/>
  <variable name="x17,15" index="257" value="-0"/>
  <variable name="x17,16" index="258" value="-0"/>
  <variable name="x17,17" index="259" value="-0"/>
  <variable name="x17,18" index="260" value="-0"/>
  <variable name="x17,19" index="261" value="-0"/>
  <variable name="x17,20" index="262" value="-0"/>
  <variable name="x17,21" index="263" value="-0"/>
  <variable name="x17,22" index="264" value="1"/>
  <variable name="x17,23" index="265" value="-0"/>
  <variable name="x18,7" index="266" value="-0"/>
  <variable name="x18,8" index="267" value="-0"/>
  <variable name="x18,9" index="268" value="-0"/>
  <variable name="x18,10" index="269" value="-0"/>
  <variable name="x18,11" index="270" value="-0"/>
  <variable name="x18,12" index="271" value="-0"/>
  <variable name="x18,13" index="272" value="-0"/>
  <variable name="x18,14" index="273" value="-0"/>
  <variable name="x18,15" index="274" value="1"/>
  <variable name="x18,16" index="275" value="-0"/>
  <variable name="x18,17" index="276" value="-0"/>
  <variable name="x18,18" index="277" value="-0"/>
  <variable name="x18,19" index="278" value="-0"/>
  <variable name="x18,20" index="279" value="-0"/>
  <variable name="x18,21" index="280" value="-0"/>
  <variable name="x18,22" index="281" value="-0"/>
  <variable name="x18,23" index="282" value="-0"/>
  <variable name="x18,24" index="283" value="-0"/>
  <variable name="x19,7" index="284" value="-0"/>
  <variable name="x19,8" index="285" value="-0"/>
  <variable name="x19,9" index="286" value="-0"/>
  <variable name="x19,10" index="287" value="-0"/>
  <variable name="x19,11" index="288" value="-0"/>
  <variable name="x19,12" index="289" value="-0"/>
  <variable name="x19,13" index="290" value="-0"/>
  <variable name="x19,14" index="291" value="-0"/>
  <variable name="x19,15" index="292" value="-0"/>
  <variable name="x19,16" index="293" value="-0"/>
  <variable name="x19,17" index="294" value="-0"/>
  <variable name="x19,18" index="295" value="-0"/>
  <variable name="x19,19" index="296" value="-0"/>
  <variable name="x19,20" index="297" value="1"/>
  <variable name="x19,21" index="298" value="-0"/>
  <variable name="x19,22" index="299" value="-0"/>
  <variable name="x19,23" index="300" value="-0"/>
  <variable name="x19,24" index="301" value="-0"/>
  <variable name="x20,6" index="302" value="0"/>
  <variable name="x20,7" index="303" value="-0"/>
  <variable name="x20,8" index="304" value="-0"/>
  <variable name="x20,9" index="305" value="-0"/>
  <variable name="x20,10" index="306" value="-0"/>
  <variable name="x20,11" index="307" value="-0"/>
  <variable name="x20,12" index="308" value="-0"/>
  <variable name="x20,13" index="309" value="-0"/>
  <variable name="x20,14" index="310" value="1"/>
  <variable name="x20,15" index="311" value="-0"/>
  <variable name="x20,16" index="312" value="-0"/>
  <variable name="x20,17" index="313" value="-0"/>
  <variable name="x20,18" index="314" value="-0"/>
  <variable name="x20,19" index="315" value="-0"/>
  <variable name="x20,20" index="316" value="-0"/>
  <variable name="x20,21" index="317" value="-0"/>
  <variable name="x20,22" index="318" value="-0"/>
  <variable name="x20,23" index="319" value="-0"/>
  <variable name="x21,6" index="320" value="-0"/>
  <variable name="x21,7" index="321" value="-0"/>
  <variable name="x21,8" index="322" value="-0"/>
  <variable name="x21,9" index="323" value="-0"/>
  <variable name="x21,10" index="324" value="-0"/>
  <variable name="x21,11" index="325" value="-0"/>
  <variable name="x21,12" index="326" value="-0"/>
  <variable name="x21,13" index="327" value="1"/>
  <variable name="x21,14" index="328" value="-0"/>
  <variable name="x21,15" index="329" value="-0"/>
  <variable name="x21,16" index="330" value="-0"/>
  <variable name="x21,17" index="331" value="-0"/>
  <variable name="x21,18" index="332" value="-0"/>
  <variable name="x21,19" index="333" value="-0"/>
  <variable name="x21,20" index="334" value="-0"/>
  <variable name="x21,21" index="335" value="-0"/>
  <variable name="x21,22" index="336" value="-0"/>
  <variable name="x21,23" index="337" value="-0"/>
  <variable name="x21,24" index="338" value="-0"/>
  <variable name="x22,6" index="339" value="-0"/>
  <variable name="x22,7" index="340" value="-0"/>
  <variable name="x22,8" index="341" value="-0"/>
  <variable name="x22,9" index="342" value="-0"/>
  <variable name="x22,10" index="343" value="-0"/>
  <variable name="x22,11" index="344" value="-0"/>
  <variable name="x22,12" index="345" value="-0"/>
  <variable name="x22,13" index="346" value="-0"/>
  <variable name="x22,14" index="347" value="-0"/>
  <variable name="x22,15" index="348" value="-0"/>
  <variable name="x22,16" index="349" value="-0"/>
  <variable name="x22,17" index="350" value="-0"/>
  <variable name="x22,18" index="351" value="-0"/>
  <variable name="x22,19" index="352" value="1"/>
  <variable name="x22,20" index="353" value="-0"/>
  <variable name="x22,21" index="354" value="-0"/>
  <variable name="x22,22" index="355" value="-0"/>
  <variable name="x22,23" index="356" value="-0"/>
  <variable name="x22,24" index="357" value="-0"/>
  <variable name="x23,5" index="358" value="-0"/>
  <variable name="x23,6" index="359" value="-0"/>
  <variable name="x23,7" index="360" value="1"/>
  <variable name="x23,8" index="361" value="-0"/>
  <variable name="x23,9" index="362" value="-0"/>
  <variable name="x23,10" index="363" value="-0"/>
  <variable name="x23,11" index="364" value="-0"/>
  <variable name="x23,12" index="365" value="-0"/>
  <variable name="x23,13" index="366" value="-0"/>
  <variable name="x23,14" index="367" value="-0"/>
  <variable name="x23,15" index="368" value="-0"/>
  <variable name="x23,16" index="369" value="-0"/>
  <variable name="x23,17" index="370" value="-0"/>
  <variable name="x23,18" index="371" value="-0"/>
  <variable name="x23,19" index="372" value="-0"/>
  <variable name="x23,20" index="373" value="-0"/>
  <variable name="x23,21" index="374" value="-0"/>
  <variable name="x23,22" index="375" value="-0"/>
  <variable name="x23,23" index="376" value="-0"/>
  <variable name="x24,9" index="377" value="1"/>
  <variable name="x24,10" index="378" value="-0"/>
  <variable name="x24,11" index="379" value="-0"/>
  <variable name="x24,12" index="380" value="-0"/>
  <variable name="x24,13" index="381" value="-0"/>
  <variable name="x24,14" index="382" value="-0"/>
  <variable name="x24,15" index="383" value="-0"/>
  <variable name="x24,16" index="384" value="-0"/>
  <variable name="x24,17" index="385" value="-0"/>
  <variable name="x24,18" index="386" value="-0"/>
  <variable name="x24,19" index="387" value="-0"/>
  <variable name="x24,20" index="388" value="-0"/>
  <variable name="x24,21" index="389" value="-0"/>
  <variable name="x25,9" index="390" value="-0"/>
  <variable name="x25,10" index="391" value="-0"/>
  <variable name="x25,11" index="392" value="1"/>
  <variable name="x25,12" index="393" value="-0"/>
  <variable name="x25,13" index="394" value="0"/>
  <variable name="x25,14" index="395" value="-0"/>
  <variable name="x25,15" index="396" value="-0"/>
  <variable name="x25,16" index="397" value="-0"/>
  <variable name="x25,17" index="398" value="-0"/>
  <variable name="x25,18" index="399" value="-0"/>
  <variable name="x25,19" index="400" value="-0"/>
  <variable name="x25,20" index="401" value="-0"/>
  <variable name="x25,21" index="402" value="-0"/>
  <variable name="x26,8" index="403" value="-0"/>
  <variable name="x26,9" index="404" value="-0"/>
  <variable name="x26,10" index="405" value="-0"/>
  <variable name="x26,11" index="406" value="-0"/>
  <variable name="x26,12" index="407" value="-0"/>
  <variable name="x26,13" index="408" value="1"/>
  <variable name="x26,14" index="409" value="0"/>
  <variable name="x26,15" index="410" value="-0"/>
  <variable name="x26,16" index="411" value="0"/>
  <variable name="x26,17" index="412" value="-0"/>
  <variable name="x26,18" index="413" value="-0"/>
  <variable name="x26,19" index="414" value="-0"/>
  <variable name="x26,20" index="415" value="0"/>
  <variable name="x26,21" index="416" value="-0"/>
  <variable name="x27,7" index="417" value="1"/>
  <variable name="x27,8" index="418" value="-0"/>
  <variable name="x27,9" index="419" value="-0"/>
  <variable name="x27,10" index="420" value="-0"/>
  <variable name="x27,11" index="421" value="-0"/>
  <variable name="x27,12" index="422" value="-0"/>
  <variable name="x27,13" index="423" value="-0"/>
  <variable name="x27,14" index="424" value="-0"/>
  <variable name="x27,15" index="425" value="-0"/>
  <variable name="x27,16" index="426" value="-0"/>
  <variable name="x27,17" index="427" value="-0"/>
  <variable name="x27,18" index="428" value="0"/>
  <variable name="x27,19" index="429" value="-0"/>
  <variable name="x27,20" index="430" value="-0"/>
  <variable name="x27,21" index="431" value="-0"/>
  <variable name="x28,6" index="432" value="-0"/>
  <variable name="x28,7" index="433" value="-0"/>
  <variable name="x28,8" index="434" value="-0"/>
  <variable name="x28,9" index="435" value="-0"/>
  <variable name="x28,10" index="436" value="-0"/>
  <variable name="x28,11" index="437" value="-0"/>
  <variable name="x28,12" index="438" value="-0"/>
  <variable name="x28,13" index="439" value="0"/>
  <variable name="x28,14" index="440" value="-0"/>
  <variable name="x28,15" index="441" value="1"/>
  <variable name="x28,16" index="442" value="-0"/>
  <variable name="x28,17" index="443" value="-0"/>
  <variable name="x28,18" index="444" value="-0"/>
  <variable name="x28,19" index="445" value="-0"/>
  <variable name="x28,20" index="446" value="-0"/>
  <variable name="x28,21" index="447" value="0"/>
  <variable name="x29,5" index="448" value="-0"/>
  <variable name="x29,6" index="449" value="-0"/>
  <variable name="x29,7" index="450" value="-0"/>
  <variable name="x29,8" index="451" value="-0"/>
  <variable name="x29,9" index="452" value="-0"/>
  <variable name="x29,10" index="453" value="-0"/>
  <variable name="x29,11" index="454" value="-0"/>
  <variable name="x29,12" index="455" value="-0"/>
  <variable name="x29,13" index="456" value="-0"/>
  <variable name="x29,14" index="457" value="-0"/>
  <variable name="x29,15" index="458" value="-0"/>
  <variable name="x29,16" index="459" value="-0"/>
  <variable name="x29,17" index="460" value="-0"/>
  <variable name="x29,18" index="461" value="-0"/>
  <variable name="x29,19" index="462" value="-0"/>
  <variable name="x29,20" index="463" value="1"/>
  <variable name="x29,21" index="464" value="-0"/>
  <variable name="x30,4" index="465" value="0"/>
  <variable name="x30,5" index="466" value="1"/>
  <variable name="x30,6" index="467" value="-0"/>
  <variable name="x30,7" index="468" value="-0"/>
  <variable name="x30,8" index="469" value="-0"/>
  <variable name="x30,9" index="470" value="-0"/>
  <variable name="x30,10" index="471" value="-0"/>
  <variable name="x30,11" index="472" value="-0"/>
  <variable name="x30,12" index="473" value="-0"/>
  <variable name="x30,13" index="474" value="-0"/>
  <variable name="x30,14" index="475" value="-0"/>
  <variable name="x30,15" index="476" value="-0"/>
  <variable name="x30,16" index="477" value="-0"/>
  <variable name="x30,17" index="478" value="-0"/>
  <variable name="x30,18" index="479" value="-0"/>
  <variable name="x30,19" index="480" value="-0"/>
  <variable name="x30,20" index="481" value="-0"/>
  <variable name="x30,21" index="482" value="-0"/>
  <variable name="x31,3" index="483" value="1"/>
  <variable name="x31,4" index="484" value="-0"/>
  <variable name="x31,5" index="485" value="-0"/>
  <variable name="x31,6" index="486" value="0"/>
  <variable name="x31,7" index="487" value="-0"/>
  <variable name="x31,8" index="488" value="-0"/>
  <variable name="x31,9" index="489" value="-0"/>
  <variable name="x31,10" index="490" value="-0"/>
  <variable name="x31,11" index="491" value="-0"/>
  <variable name="x31,12" index="492" value="-0"/>
  <variable name="x31,13" index="493" value="-0"/>
  <variable name="x31,14" index="494" value="-0"/>
  <variable name="x31,15" index="495" value="-0"/>
  <variable name="x31,16" index="496" value="-0"/>
  <variable name="x31,17" index="497" value="-0"/>
  <variable name="x31,18" index="498" value="-0"/>
  <variable name="x31,19" index="499" value="-0"/>
  <variable name="x31,20" index="500" value="-0"/>
  <variable name="x31,21" index="501" value="-0"/>
  <variable name="x32,8" index="502" value="1"/>
  <variable name="x32,9" index="503" value="-0"/>
  <variable name="x32,10" index="504" value="-0"/>
  <variable name="x32,11" index="505" value="-0"/>
  <variable name="x32,12" index="506" value="-0"/>
  <variable name="x32,13" index="507" value="-0"/>
  <variable name="x32,14" index="508" value="-0"/>
  <variable name="x32,15" index="509" value="-0"/>
  <variable name="x32,16" index="510" value="-0"/>
  <variable name="x32,17" index="511" value="-0"/>
  <variable name="x32,18" index="512" value="-0"/>
  <variable name="x32,19" index="513" value="-0"/>
  <variable name="x32,20" index="514" value="-0"/>
  <variable name="x33,7" index="515" value="1"/>
  <variable name="x33,8" index="516" value="-0"/>
  <variable name="x33,9" index="517" value="-0"/>
  <variable name="x33,10" index="518" value="-0"/>
  <variable name="x33,11" index="519" value="-0"/>
  <variable name="x33,12" index="520" value="-0"/>
  <variable name="x33,13" index="521" value="-0"/>
  <variable name="x33,14" index="522" value="-0"/>
  <variable name="x33,15" index="523" value="-0"/>
  <variable name="x33,16" index="524" value="-0"/>
  <variable name="x33,17" index="525" value="-0"/>
  <variable name="x33,18" index="526" value="-0"/>
  <variable name="x33,19" index="527" value="-0"/>
  <variable name="x34,6" index="528" value="1"/>
  <variable name="x34,7" index="529" value="-0"/>
  <variable name="x34,8" index="530" value="-0"/>
  <variable name="x34,9" index="531" value="-0"/>
  <variable name="x34,10" index="532" value="-0"/>
  <variable name="x34,11" index="533" value="-0"/>
  <variable name="x34,12" index="534" value="-0"/>
  <variable name="x34,13" index="535" value="-0"/>
  <variable name="x34,14" index="536" value="-0"/>
  <variable name="x34,15" index="537" value="-0"/>
  <variable name="x34,16" index="538" value="-0"/>
  <variable name="x34,17" index="539" value="-0"/>
  <variable name="x34,18" index="540" value="-0"/>
  <variable name="x35,5" index="541" value="1"/>
  <variable name="x35,6" index="542" value="-0"/>
  <variable name="x35,7" index="543" value="-0"/>
  <variable name="x35,8" index="544" value="-0"/>
  <variable name="x35,9" index="545" value="-0"/>
  <variable name="x35,10" index="546" value="-0"/>
  <variable name="x35,11" index="547" value="-0"/>
  <variable name="x35,12" index="548" value="-0"/>
  <variable name="x35,13" index="549" value="-0"/>
  <variable name="x35,14" index="550" value="-0"/>
  <variable name="x35,15" index="551" value="-0"/>
  <variable name="x35,16" index="552" value="-0"/>
  <variable name="x35,17" index="553" value="-0"/>
  <variable name="x36,4" index="554" value="1"/>
  <variable name="x36,5" index="555" value="-0"/>
  <variable name="x36,6" index="556" value="-0"/>
  <variable name="x36,7" index="557" value="-0"/>
  <variable name="x36,8" index="558" value="-0"/>
  <variable name="x36,9" index="559" value="-0"/>
  <variable name="x36,10" index="560" value="-0"/>
  <variable name="x36,11" index="561" value="-0"/>
  <variable name="x36,12" index="562" value="-0"/>
  <variable name="x36,13" index="563" value="-0"/>
  <variable name="x36,14" index="564" value="-0"/>
  <variable name="x36,15" index="565" value="-0"/>
  <variable name="x36,16" index="566" value="-0"/>
  <variable name="x37,3" index="567" value="1"/>
  <variable name="x37,4" index="568" value="-0"/>
  <variable name="x37,5" index="569" value="-0"/>
  <variable name="x37,6" index="570" value="-0"/>
  <variable name="x37,7" index="571" value="-0"/>
  <variable name="x37,8" index="572" value="-0"/>
  <variable name="x37,9" index="573" value="-0"/>
  <variable name="x37,10" index="574" value="-0"/>
  <variable name="x37,11" index="575" value="-0"/>
  <variable name="x37,12" index="576" value="-0"/>
  <variable name="x37,13" index="577" value="-0"/>
  <variable name="x37,14" index="578" value="-0"/>
  <variable name="x37,15" index="579" value="-0"/>
  <variable name="x38,2" index="580" value="1"/>
  <variable name="x38,3" index="581" value="0"/>
  <variable name="x38,4" index="582" value="0"/>
  <variable name="x38,5" index="583" value="0"/>
  <variable name="x38,6" index="584" value="0"/>
  <variable name="x38,7" index="585" value="0"/>
  <variable name="x38,8" index="586" value="0"/>
  <variable name="x38,9" index="587" value="0"/>
  <variable name="x38,10" index="588" value="0"/>
  <variable name="x38,11" index="589" value="0"/>
  <variable name="x38,12" index="590" value="0"/>
  <variable name="x38,13" index="591" value="0"/>
  <variable name="x38,14" index="592" value="0"/>
  <variable name="x39,1" index="593" value="1"/>
  <variable name="x39,2" index="594" value="0"/>
  <variable name="x39,3" index="595" value="0"/>
  <variable name="x39,4" index="596" value="0"/>
  <variable name="x39,5" index="597" value="0"/>
  <variable name="x39,6" index="598" value="0"/>
  <variable name="x39,7" index="599" value="0"/>
  <variable name="x39,8" index="600" value="0"/>
  <variable name="x39,9" index="601" value="0"/>
  <variable name="x39,10" index="602" value="0"/>
  <variable name="x39,11" index="603" value="0"/>
  <variable name="x39,12" index="604" value="0"/>
  <variable name="x39,13" index="605" value="0"/>
  <variable name="x30,3" index="606" value="0"/>
  <variable name="x29,4" index="607" value="0"/>
  <variable name="x28,5" index="608" value="0"/>
  <variable name="x27,6" index="609" value="0"/>
  <variable name="x26,7" index="610" value="0"/>
  <variable name="x24,8" index="611" value="0"/>
  <variable name="x25,8" index="612" value="0"/>
  <variable name="x24,22" index="613" value="0"/>
  <variable name="x25,22" index="614" value="0"/>
  <variable name="x26,22" index="615" value="0"/>
  <variable name="x27,22" index="616" value="0"/>
  <variable name="x28,22" index="617" value="0"/>
  <variable name="x29,22" index="618" value="0"/>
  <variable name="x30,22" index="619" value="0"/>
  <variable name="x31,22" index="620" value="0"/>
 </variables>
</CPLEXSolution>
